
  32    4
  10   10   10   10

   0   0   0   0   0   5 2 22 29 30 31 
   5   1   1   1   0   1 3 
   3   2   8   0   1   2 9 4 
   3   2   4   0   3   2 14 5 
  10   5   3   0   5   2 28 6 
   2   4   4   4   0   2 27 7 
   6   3   4   5   0   1 8 
   7   5   2   0   5   1 10 
   4   3   0   4   4   1 10 
   4   9   3   0   6   1 11 
   6   0   1   1   3   2 26 12 
   7   5   6   3   0   1 13 
   4   0   3   5   8   1 15 
   9   5   3   0   4   1 15 
   5   2   0   4   4   1 16 
   7   2   3   6   0   1 17 
   7   4   4   4   0   1 18 
   5   3   6   5   0   1 19 
   6   4   4   4   0   1 20 
   7   3   4   0   4   1 21 
  10   5   0   2   7   1 23 
   8   6   4   4   0   1 23 
  10   5   7   0   3   1 24 
   4   3   3   3   0   1 25 
  10   0   7   4   2   1 32
   3   7   3   4   0   1 32
   1   0   5   6   2   1 32
  10   0   4   4   3   1 32
   5   5   5   6   0   1 32
   5   4   3   0   4   1 32
   7   3   0   5   4   1 32
   0   0   0   0   0   0 
